c A SAT instance generated from a 3-CNF formula that had 48 clauses and 12 variables
p cnf 12 48
2 6 -3 0
12 -9 -6 0
3 -4 -7 0
-4 -8 -1 0
8 -11 -7 0
8 -4 -10 0
8 -5 -9 0
9 1 12 0
-11 9 -12 0
-1 2 11 0
-4 -6 -5 0
-8 -4 -9 0
-11 6 -9 0
-9 6 -7 0
8 -4 -3 0
-9 11 2 0
-12 -1 5 0
-11 -4 -10 0
7 -11 5 0
-7 5 9 0
4 2 7 0
12 8 10 0
-6 5 7 0
7 11 -3 0
-1 5 -10 0
-9 -12 -5 0
-4 -2 -1 0
7 2 -3 0
3 -10 7 0
-11 9 10 0
10 4 -9 0
-6 7 1 0
-6 -1 -11 0
-5 -4 -10 0
8 -12 -9 0
-10 -2 1 0
10 1 -2 0
-3 -4 -7 0
-6 9 -2 0
-11 6 -4 0
-2 -5 -10 0
-5 8 10 0
-5 3 -12 0
-2 11 10 0
-5 -4 -11 0
-5 -4 -7 0
-10 -11 9 0
-7 -4 -2 0
